p cnf 225 1
225 0
w 1 0.34011
w 2 1 0.060737
w 2 -1 0.576831
w 3 2 1
w 3 -2 0
w 4 3 0
w 4 -3 1
w 5 4 1
w 5 -4 0
w 6 5 0.420548
w 6 -5 0.785082
w 7 6 0.579095
w 7 -6 0.556157
w 8 7 0.398134
w 8 -7 0.776539
w 9 8 1
w 9 -8 0
w 10 9 1
w 10 -9 0
w 11 10 0.615441
w 11 -10 0.103574
w 12 11 0.647345
w 12 -11 0.924385
w 13 12 1
w 13 -12 0
w 14 13 1
w 14 -13 0
w 15 14 0.841326
w 15 -14 0.305037
w 16 1 1
w 16 -1 0
w 17 16 2 0.287416
w 17 16 -2 0.0209125
w 17 -16 2 0.802772
w 17 -16 -2 0.707964
w 18 17 3 0.562221
w 18 17 -3 0.28706
w 18 -17 3 0.362152
w 18 -17 -3 0.535984
w 19 18 4 0.13869
w 19 18 -4 0.841724
w 19 -18 4 0.163856
w 19 -18 -4 0.44689
w 20 19 5 1
w 20 19 -5 0
w 20 -19 5 1
w 20 -19 -5 0
w 21 20 6 0.434251
w 21 20 -6 0.229704
w 21 -20 6 0.471372
w 21 -20 -6 0.698747
w 22 21 7 0
w 22 21 -7 0
w 22 -21 7 0
w 22 -21 -7 1
w 23 22 8 0.438508
w 23 22 -8 0.725599
w 23 -22 8 0.679074
w 23 -22 -8 0.241281
w 24 23 9 1
w 24 23 -9 1
w 24 -23 9 1
w 24 -23 -9 0
w 25 24 10 1
w 25 24 -10 0
w 25 -24 10 1
w 25 -24 -10 1
w 26 25 11 0.510799
w 26 25 -11 0.495131
w 26 -25 11 0.0973672
w 26 -25 -11 0.267029
w 27 26 12 0
w 27 26 -12 0
w 27 -26 12 1
w 27 -26 -12 0
w 28 27 13 0.969985
w 28 27 -13 0.770438
w 28 -27 13 0.333991
w 28 -27 -13 0.408167
w 29 28 14 1
w 29 28 -14 0
w 29 -28 14 1
w 29 -28 -14 0
w 30 29 15 0.592743
w 30 29 -15 0.817282
w 30 -29 15 0.287951
w 30 -29 -15 0.439963
w 31 16 0
w 31 -16 1
w 32 31 17 1
w 32 31 -17 1
w 32 -31 17 0
w 32 -31 -17 1
w 33 32 18 0.353805
w 33 32 -18 0.0228441
w 33 -32 18 0.0412692
w 33 -32 -18 0.558613
w 34 33 19 0.538003
w 34 33 -19 0.234793
w 34 -33 19 0.784828
w 34 -33 -19 0.300847
w 35 34 20 1
w 35 34 -20 1
w 35 -34 20 0
w 35 -34 -20 1
w 36 35 21 0
w 36 35 -21 0
w 36 -35 21 1
w 36 -35 -21 0
w 37 36 22 0.2384
w 37 36 -22 0.601991
w 37 -36 22 0.124247
w 37 -36 -22 0.395167
w 38 37 23 1
w 38 37 -23 0
w 38 -37 23 0
w 38 -37 -23 1
w 39 38 24 0.333439
w 39 38 -24 0.7626
w 39 -38 24 0.681463
w 39 -38 -24 0.374708
w 40 39 25 1
w 40 39 -25 0
w 40 -39 25 1
w 40 -39 -25 0
w 41 40 26 1
w 41 40 -26 1
w 41 -40 26 0
w 41 -40 -26 1
w 42 41 27 1
w 42 41 -27 0
w 42 -41 27 0
w 42 -41 -27 1
w 43 42 28 1
w 43 42 -28 0
w 43 -42 28 1
w 43 -42 -28 0
w 44 43 29 0
w 44 43 -29 1
w 44 -43 29 0
w 44 -43 -29 0
w 45 44 30 1
w 45 44 -30 0
w 45 -44 30 0
w 45 -44 -30 0
w 46 31 0.512287
w 46 -31 0.0586935
w 47 46 32 0.725845
w 47 46 -32 0.819478
w 47 -46 32 0.216344
w 47 -46 -32 0.574242
w 48 47 33 0
w 48 47 -33 0
w 48 -47 33 1
w 48 -47 -33 1
w 49 48 34 0.748125
w 49 48 -34 0.76337
w 49 -48 34 0.422082
w 49 -48 -34 0.784595
w 50 49 35 0
w 50 49 -35 0
w 50 -49 35 1
w 50 -49 -35 0
w 51 50 36 1
w 51 50 -36 1
w 51 -50 36 1
w 51 -50 -36 0
w 52 51 37 0.832694
w 52 51 -37 0.336443
w 52 -51 37 0.481456
w 52 -51 -37 0.344981
w 53 52 38 0
w 53 52 -38 0
w 53 -52 38 0
w 53 -52 -38 1
w 54 53 39 0.407821
w 54 53 -39 0.114355
w 54 -53 39 0.475045
w 54 -53 -39 0.721468
w 55 54 40 0.981875
w 55 54 -40 0.469593
w 55 -54 40 0.305385
w 55 -54 -40 0.403957
w 56 55 41 0
w 56 55 -41 1
w 56 -55 41 0
w 56 -55 -41 1
w 57 56 42 0.379263
w 57 56 -42 0.414404
w 57 -56 42 0.390761
w 57 -56 -42 0.612381
w 58 57 43 1
w 58 57 -43 1
w 58 -57 43 1
w 58 -57 -43 0
w 59 58 44 0.979739
w 59 58 -44 0.855883
w 59 -58 44 0.860882
w 59 -58 -44 0.194354
w 60 59 45 0
w 60 59 -45 0
w 60 -59 45 1
w 60 -59 -45 0
w 61 46 1
w 61 -46 0
w 62 61 47 0.793237
w 62 61 -47 0.155761
w 62 -61 47 0.366828
w 62 -61 -47 0.0474251
w 63 62 48 0.503285
w 63 62 -48 0.418437
w 63 -62 48 0.446597
w 63 -62 -48 0.415804
w 64 63 49 0.861001
w 64 63 -49 0.806566
w 64 -63 49 0.410081
w 64 -63 -49 0.109161
w 65 64 50 0
w 65 64 -50 0
w 65 -64 50 1
w 65 -64 -50 0
w 66 65 51 0.649199
w 66 65 -51 0.506094
w 66 -65 51 0.867857
w 66 -65 -51 0.843206
w 67 66 52 1
w 67 66 -52 0
w 67 -66 52 0
w 67 -66 -52 1
w 68 67 53 0
w 68 67 -53 1
w 68 -67 53 1
w 68 -67 -53 0
w 69 68 54 0.842181
w 69 68 -54 0.826025
w 69 -68 54 0.0527741
w 69 -68 -54 0.288778
w 70 69 55 0
w 70 69 -55 0
w 70 -69 55 0
w 70 -69 -55 1
w 71 70 56 0
w 71 70 -56 0
w 71 -70 56 0
w 71 -70 -56 1
w 72 71 57 0.626206
w 72 71 -57 0.550123
w 72 -71 57 0.267015
w 72 -71 -57 0.494064
w 73 72 58 1
w 73 72 -58 1
w 73 -72 58 0
w 73 -72 -58 1
w 74 73 59 0.228014
w 74 73 -59 0.344684
w 74 -73 59 0.70455
w 74 -73 -59 0.550755
w 75 74 60 0.54673
w 75 74 -60 0.37678
w 75 -74 60 0.0317953
w 75 -74 -60 0.835508
w 76 61 0.882269
w 76 -61 0.985286
w 77 76 62 0.142823
w 77 76 -62 0.244225
w 77 -76 62 0.774613
w 77 -76 -62 0.258533
w 78 77 63 1
w 78 77 -63 1
w 78 -77 63 0
w 78 -77 -63 0
w 79 78 64 0
w 79 78 -64 1
w 79 -78 64 0
w 79 -78 -64 0
w 80 79 65 1
w 80 79 -65 0
w 80 -79 65 0
w 80 -79 -65 1
w 81 80 66 1
w 81 80 -66 1
w 81 -80 66 0
w 81 -80 -66 1
w 82 81 67 0.394566
w 82 81 -67 0.797519
w 82 -81 67 0.61179
w 82 -81 -67 0.276835
w 83 82 68 0.278795
w 83 82 -68 0.419659
w 83 -82 68 0.0270312
w 83 -82 -68 0.0534082
w 84 83 69 0.22396
w 84 83 -69 0.728945
w 84 -83 69 0.697646
w 84 -83 -69 0.0470947
w 85 84 70 0.984116
w 85 84 -70 0.364293
w 85 -84 70 0.573596
w 85 -84 -70 0.549646
w 86 85 71 0.737484
w 86 85 -71 0.387278
w 86 -85 71 0.684654
w 86 -85 -71 0.448216
w 87 86 72 1
w 87 86 -72 0
w 87 -86 72 0
w 87 -86 -72 1
w 88 87 73 0.0625054
w 88 87 -73 0.825742
w 88 -87 73 0.623028
w 88 -87 -73 0.674296
w 89 88 74 0
w 89 88 -74 1
w 89 -88 74 0
w 89 -88 -74 1
w 90 89 75 0
w 90 89 -75 0
w 90 -89 75 1
w 90 -89 -75 0
w 91 76 0.69005
w 91 -76 0.882189
w 92 91 77 1
w 92 91 -77 0
w 92 -91 77 0
w 92 -91 -77 1
w 93 92 78 0.398455
w 93 92 -78 0.449347
w 93 -92 78 0.272037
w 93 -92 -78 0.466859
w 94 93 79 1
w 94 93 -79 0
w 94 -93 79 0
w 94 -93 -79 0
w 95 94 80 0.761382
w 95 94 -80 0.0781633
w 95 -94 80 0.826353
w 95 -94 -80 0.167216
w 96 95 81 1
w 96 95 -81 1
w 96 -95 81 0
w 96 -95 -81 1
w 97 96 82 1
w 97 96 -82 1
w 97 -96 82 1
w 97 -96 -82 0
w 98 97 83 0
w 98 97 -83 1
w 98 -97 83 1
w 98 -97 -83 1
w 99 98 84 0.141295
w 99 98 -84 0.177372
w 99 -98 84 0.852263
w 99 -98 -84 0.608154
w 100 99 85 1
w 100 99 -85 0
w 100 -99 85 0
w 100 -99 -85 0
w 101 100 86 0
w 101 100 -86 1
w 101 -100 86 1
w 101 -100 -86 1
w 102 101 87 1
w 102 101 -87 0
w 102 -101 87 0
w 102 -101 -87 0
w 103 102 88 1
w 103 102 -88 0
w 103 -102 88 1
w 103 -102 -88 1
w 104 103 89 0
w 104 103 -89 1
w 104 -103 89 1
w 104 -103 -89 0
w 105 104 90 0.923886
w 105 104 -90 0.896307
w 105 -104 90 0.103616
w 105 -104 -90 0.117511
w 106 91 0
w 106 -91 1
w 107 106 92 0.632459
w 107 106 -92 0.122136
w 107 -106 92 0.39066
w 107 -106 -92 0.688775
w 108 107 93 0.0975703
w 108 107 -93 0.0936799
w 108 -107 93 0.83655
w 108 -107 -93 0.842234
w 109 108 94 0
w 109 108 -94 1
w 109 -108 94 0
w 109 -108 -94 1
w 110 109 95 1
w 110 109 -95 0
w 110 -109 95 0
w 110 -109 -95 1
w 111 110 96 1
w 111 110 -96 1
w 111 -110 96 1
w 111 -110 -96 0
w 112 111 97 0.361021
w 112 111 -97 0.202253
w 112 -111 97 0.783313
w 112 -111 -97 0.763517
w 113 112 98 0.498317
w 113 112 -98 0.395976
w 113 -112 98 0.0565747
w 113 -112 -98 0.888978
w 114 113 99 1
w 114 113 -99 0
w 114 -113 99 0
w 114 -113 -99 1
w 115 114 100 0.226031
w 115 114 -100 0.823131
w 115 -114 100 0.188877
w 115 -114 -100 0.674639
w 116 115 101 0
w 116 115 -101 0
w 116 -115 101 1
w 116 -115 -101 0
w 117 116 102 0.655077
w 117 116 -102 0.0645242
w 117 -116 102 0.26574
w 117 -116 -102 0.119791
w 118 117 103 0
w 118 117 -103 1
w 118 -117 103 0
w 118 -117 -103 0
w 119 118 104 0
w 119 118 -104 1
w 119 -118 104 1
w 119 -118 -104 0
w 120 119 105 1
w 120 119 -105 0
w 120 -119 105 0
w 120 -119 -105 1
w 121 106 0.91748
w 121 -106 0.129517
w 122 121 107 1
w 122 121 -107 1
w 122 -121 107 0
w 122 -121 -107 1
w 123 122 108 0.415193
w 123 122 -108 0.215726
w 123 -122 108 0.181514
w 123 -122 -108 0.0702696
w 124 123 109 1
w 124 123 -109 0
w 124 -123 109 0
w 124 -123 -109 0
w 125 124 110 0.808824
w 125 124 -110 0.093652
w 125 -124 110 0.915202
w 125 -124 -110 0.108676
w 126 125 111 1
w 126 125 -111 1
w 126 -125 111 1
w 126 -125 -111 0
w 127 126 112 0.497674
w 127 126 -112 0.184048
w 127 -126 112 0.222138
w 127 -126 -112 0.415155
w 128 127 113 0
w 128 127 -113 1
w 128 -127 113 0
w 128 -127 -113 0
w 129 128 114 1
w 129 128 -114 1
w 129 -128 114 1
w 129 -128 -114 0
w 130 129 115 1
w 130 129 -115 0
w 130 -129 115 1
w 130 -129 -115 1
w 131 130 116 0.993073
w 131 130 -116 0.906159
w 131 -130 116 0.876626
w 131 -130 -116 0.908274
w 132 131 117 1
w 132 131 -117 1
w 132 -131 117 0
w 132 -131 -117 1
w 133 132 118 0.0373436
w 133 132 -118 0.0901011
w 133 -132 118 0.928391
w 133 -132 -118 0.259482
w 134 133 119 0.241955
w 134 133 -119 0.969482
w 134 -133 119 0.0267671
w 134 -133 -119 0.359676
w 135 134 120 0.184716
w 135 134 -120 0.135086
w 135 -134 120 0.67803
w 135 -134 -120 0.55839
w 136 121 1
w 136 -121 0
w 137 136 122 0
w 137 136 -122 1
w 137 -136 122 1
w 137 -136 -122 0
w 138 137 123 1
w 138 137 -123 0
w 138 -137 123 1
w 138 -137 -123 1
w 139 138 124 0
w 139 138 -124 1
w 139 -138 124 0
w 139 -138 -124 0
w 140 139 125 0.0217661
w 140 139 -125 0.170231
w 140 -139 125 0.0074051
w 140 -139 -125 0.527022
w 141 140 126 0
w 141 140 -126 0
w 141 -140 126 1
w 141 -140 -126 0
w 142 141 127 0.906949
w 142 141 -127 0.271077
w 142 -141 127 0.296895
w 142 -141 -127 0.998958
w 143 142 128 0
w 143 142 -128 1
w 143 -142 128 1
w 143 -142 -128 0
w 144 143 129 0.339059
w 144 143 -129 0.0346679
w 144 -143 129 0.930093
w 144 -143 -129 0.372776
w 145 144 130 0
w 145 144 -130 1
w 145 -144 130 0
w 145 -144 -130 1
w 146 145 131 1
w 146 145 -131 0
w 146 -145 131 0
w 146 -145 -131 0
w 147 146 132 0.694532
w 147 146 -132 0.708106
w 147 -146 132 0.303573
w 147 -146 -132 0.466394
w 148 147 133 0
w 148 147 -133 0
w 148 -147 133 1
w 148 -147 -133 0
w 149 148 134 1
w 149 148 -134 0
w 149 -148 134 0
w 149 -148 -134 0
w 150 149 135 0.641753
w 150 149 -135 0.206153
w 150 -149 135 0.701711
w 150 -149 -135 0.571846
w 151 136 0.967022
w 151 -136 0.841177
w 152 151 137 0
w 152 151 -137 0
w 152 -151 137 0
w 152 -151 -137 1
w 153 152 138 0
w 153 152 -138 1
w 153 -152 138 1
w 153 -152 -138 0
w 154 153 139 1
w 154 153 -139 0
w 154 -153 139 1
w 154 -153 -139 1
w 155 154 140 0
w 155 154 -140 1
w 155 -154 140 0
w 155 -154 -140 0
w 156 155 141 0.61768
w 156 155 -141 0.500005
w 156 -155 141 0.214571
w 156 -155 -141 0.259433
w 157 156 142 0.916282
w 157 156 -142 0.831279
w 157 -156 142 0.285086
w 157 -156 -142 0.883304
w 158 157 143 0.734289
w 158 157 -143 0.826216
w 158 -157 143 0.71463
w 158 -157 -143 0.295607
w 159 158 144 0
w 159 158 -144 1
w 159 -158 144 0
w 159 -158 -144 1
w 160 159 145 0.996937
w 160 159 -145 0.31258
w 160 -159 145 0.682055
w 160 -159 -145 0.404141
w 161 160 146 0.0599874
w 161 160 -146 0.383575
w 161 -160 146 0.372296
w 161 -160 -146 0.810221
w 162 161 147 0
w 162 161 -147 1
w 162 -161 147 0
w 162 -161 -147 0
w 163 162 148 0.222648
w 163 162 -148 0.0506782
w 163 -162 148 0.518613
w 163 -162 -148 0.507734
w 164 163 149 0.191069
w 164 163 -149 0.242023
w 164 -163 149 0.760198
w 164 -163 -149 0.905699
w 165 164 150 0.25314
w 165 164 -150 0.885265
w 165 -164 150 0.676901
w 165 -164 -150 0.144026
w 166 151 0.354366
w 166 -151 0.140963
w 167 166 152 1
w 167 166 -152 0
w 167 -166 152 0
w 167 -166 -152 0
w 168 167 153 0.237378
w 168 167 -153 0.906629
w 168 -167 153 0.945165
w 168 -167 -153 0.157202
w 169 168 154 1
w 169 168 -154 0
w 169 -168 154 0
w 169 -168 -154 1
w 170 169 155 0
w 170 169 -155 1
w 170 -169 155 1
w 170 -169 -155 1
w 171 170 156 1
w 171 170 -156 1
w 171 -170 156 0
w 171 -170 -156 0
w 172 171 157 0.648593
w 172 171 -157 0.433623
w 172 -171 157 0.402062
w 172 -171 -157 0.00295879
w 173 172 158 0.594193
w 173 172 -158 0.0393793
w 173 -172 158 0.11969
w 173 -172 -158 0.459274
w 174 173 159 0
w 174 173 -159 1
w 174 -173 159 1
w 174 -173 -159 1
w 175 174 160 0.376948
w 175 174 -160 0.455191
w 175 -174 160 0.145452
w 175 -174 -160 0.398813
w 176 175 161 0
w 176 175 -161 1
w 176 -175 161 0
w 176 -175 -161 1
w 177 176 162 0.765595
w 177 176 -162 0.800444
w 177 -176 162 0.308086
w 177 -176 -162 0.737288
w 178 177 163 1
w 178 177 -163 1
w 178 -177 163 0
w 178 -177 -163 1
w 179 178 164 1
w 179 178 -164 0
w 179 -178 164 1
w 179 -178 -164 1
w 180 179 165 1
w 180 179 -165 1
w 180 -179 165 1
w 180 -179 -165 0
w 181 166 1
w 181 -166 0
w 182 181 167 0.715032
w 182 181 -167 0.982085
w 182 -181 167 0.382183
w 182 -181 -167 0.854527
w 183 182 168 1
w 183 182 -168 1
w 183 -182 168 0
w 183 -182 -168 1
w 184 183 169 0.0342441
w 184 183 -169 0.300401
w 184 -183 169 0.688943
w 184 -183 -169 0.124284
w 185 184 170 1
w 185 184 -170 0
w 185 -184 170 1
w 185 -184 -170 1
w 186 185 171 0.190511
w 186 185 -171 0.891882
w 186 -185 171 0.964134
w 186 -185 -171 0.476638
w 187 186 172 0
w 187 186 -172 1
w 187 -186 172 0
w 187 -186 -172 0
w 188 187 173 1
w 188 187 -173 1
w 188 -187 173 0
w 188 -187 -173 1
w 189 188 174 0.749339
w 189 188 -174 0.245901
w 189 -188 174 0.981747
w 189 -188 -174 0.741653
w 190 189 175 1
w 190 189 -175 0
w 190 -189 175 1
w 190 -189 -175 0
w 191 190 176 0
w 191 190 -176 0
w 191 -190 176 1
w 191 -190 -176 1
w 192 191 177 0.727222
w 192 191 -177 0.316869
w 192 -191 177 0.498553
w 192 -191 -177 0.20386
w 193 192 178 0.728995
w 193 192 -178 0.663276
w 193 -192 178 0.835067
w 193 -192 -178 0.219277
w 194 193 179 0.880748
w 194 193 -179 0.424591
w 194 -193 179 0.237459
w 194 -193 -179 0.308612
w 195 194 180 1
w 195 194 -180 0
w 195 -194 180 0
w 195 -194 -180 1
w 196 181 0.92789
w 196 -181 0.983145
w 197 196 182 0.81439
w 197 196 -182 0.123421
w 197 -196 182 0.0147111
w 197 -196 -182 0.775713
w 198 197 183 0.551422
w 198 197 -183 0.2007
w 198 -197 183 0.446063
w 198 -197 -183 0.278645
w 199 198 184 0.944617
w 199 198 -184 0.482505
w 199 -198 184 0.290325
w 199 -198 -184 0.673611
w 200 199 185 0
w 200 199 -185 1
w 200 -199 185 0
w 200 -199 -185 0
w 201 200 186 1
w 201 200 -186 0
w 201 -200 186 1
w 201 -200 -186 0
w 202 201 187 1
w 202 201 -187 1
w 202 -201 187 1
w 202 -201 -187 0
w 203 202 188 1
w 203 202 -188 1
w 203 -202 188 1
w 203 -202 -188 0
w 204 203 189 0
w 204 203 -189 1
w 204 -203 189 1
w 204 -203 -189 1
w 205 204 190 0.768506
w 205 204 -190 0.704013
w 205 -204 190 0.34125
w 205 -204 -190 0.0588317
w 206 205 191 0
w 206 205 -191 0
w 206 -205 191 1
w 206 -205 -191 0
w 207 206 192 0
w 207 206 -192 1
w 207 -206 192 0
w 207 -206 -192 1
w 208 207 193 0
w 208 207 -193 0
w 208 -207 193 1
w 208 -207 -193 0
w 209 208 194 1
w 209 208 -194 1
w 209 -208 194 1
w 209 -208 -194 0
w 210 209 195 1
w 210 209 -195 0
w 210 -209 195 1
w 210 -209 -195 0
w 211 196 0
w 211 -196 1
w 212 211 197 0.0144945
w 212 211 -197 0.872876
w 212 -211 197 0.785319
w 212 -211 -197 0.392118
w 213 212 198 1
w 213 212 -198 1
w 213 -212 198 1
w 213 -212 -198 0
w 214 213 199 1
w 214 213 -199 0
w 214 -213 199 0
w 214 -213 -199 0
w 215 214 200 0.562672
w 215 214 -200 0.707211
w 215 -214 200 0.592986
w 215 -214 -200 0.944954
w 216 215 201 0.657087
w 216 215 -201 0.60176
w 216 -215 201 0.781027
w 216 -215 -201 0.749866
w 217 216 202 1
w 217 216 -202 0
w 217 -216 202 1
w 217 -216 -202 1
w 218 217 203 0.993273
w 218 217 -203 0.657089
w 218 -217 203 0.827247
w 218 -217 -203 0.778593
w 219 218 204 1
w 219 218 -204 0
w 219 -218 204 0
w 219 -218 -204 0
w 220 219 205 0.96246
w 220 219 -205 0.0259409
w 220 -219 205 0.573075
w 220 -219 -205 0.602984
w 221 220 206 0
w 221 220 -206 1
w 221 -220 206 1
w 221 -220 -206 1
w 222 221 207 0
w 222 221 -207 1
w 222 -221 207 0
w 222 -221 -207 0
w 223 222 208 1
w 223 222 -208 1
w 223 -222 208 1
w 223 -222 -208 0
w 224 223 209 0
w 224 223 -209 1
w 224 -223 209 0
w 224 -223 -209 0
w 225 224 210 0.507385
w 225 224 -210 0.807961
w 225 -224 210 0.599711
w 225 -224 -210 0.646582